161 5
10 10 10 10 10 

0 0 0 0 0 0 5 2 24 46 68 90 
0 0 0 0 0 0 2 3 5 
5 4 3 0 0 0 2 8 4 
8 7 5 0 0 0 1 6 
7 9 9 0 0 0 1 6 
4 5 10 0 0 0 1 7 
10 10 9 0 0 0 1 9 
2 10 9 0 0 0 1 9 
4 9 8 0 0 0 2 15 10 
6 9 8 0 0 0 2 22 11 
3 5 10 0 0 0 1 12 
1 8 7 0 0 0 1 13 
2 6 6 0 0 0 2 21 14 
3 6 10 0 0 0 1 16 
1 5 9 0 0 0 1 16 
1 10 9 0 0 0 1 17 
2 8 6 0 0 0 1 18 
1 10 6 0 0 0 1 19 
4 7 6 0 0 0 1 20 
1 10 5 0 0 0 1 23 
9 8 7 0 0 0 2 23 87 
7 4 8 0 0 0 1 23 
0 0 0 0 0 0 1 126 
0 0 0 0 0 0 1 25 
4 0 3 5 0 0 2 29 26 
3 0 6 10 0 0 2 32 27 
4 0 6 8 0 0 1 28 
2 0 9 8 0 0 1 30 
6 0 9 9 0 0 1 30 
4 0 10 10 0 0 2 35 31 
6 0 5 5 0 0 2 39 33 
1 0 9 8 0 0 2 39 33 
2 0 9 8 0 0 1 34 
2 0 6 10 0 0 1 36 
2 0 8 10 0 0 1 36 
10 0 8 8 0 0 2 44 37 
5 0 5 7 0 0 1 38 
1 0 10 7 0 0 1 40 
1 0 7 5 0 0 1 40 
1 0 8 8 0 0 1 41 
7 0 4 8 0 0 1 42 
2 0 10 7 0 0 2 43 108 
6 0 8 3 0 0 1 45 
5 0 10 6 0 0 1 45 
0 0 0 0 0 0 1 126 
0 0 0 0 0 0 1 47 
6 0 0 3 0 3 2 51 48 
8 0 0 5 0 7 1 49 
6 0 0 6 0 4 1 50 
10 0 0 9 0 9 2 55 52 
3 0 0 5 0 9 2 55 52 
4 0 0 7 0 8 1 53 
5 0 0 5 0 9 1 54 
9 0 0 10 0 9 2 61 56 
5 0 0 10 0 6 2 61 56 
1 0 0 7 0 10 1 57 
9 0 0 7 0 6 2 60 58 
8 0 0 10 0 6 1 59 
5 0 0 6 0 10 2 64 62 
6 0 0 10 0 9 2 64 63 
1 0 0 10 0 6 2 62 110 
2 0 0 6 0 7 1 63 
3 0 0 9 0 7 1 65 
3 0 0 10 0 6 1 65 
3 0 0 9 0 10 1 66 
2 0 0 6 0 9 1 67 
0 0 0 0 0 0 1 126 
0 0 0 0 0 0 3 69 72 73 
8 0 0 5 0 5 1 70 
7 0 0 5 0 9 1 71 
1 0 0 9 0 4 3 88 83 74 
8 0 0 8 0 9 3 88 83 74 
6 0 0 5 0 6 3 88 83 76 
10 0 0 9 0 6 1 75 
5 0 0 9 0 9 1 76 
2 0 0 10 0 7 1 77 
7 0 0 5 0 10 1 78 
5 0 0 7 0 6 1 79 
5 0 0 8 0 10 2 87 80 
5 0 0 7 0 10 1 81 
5 0 0 10 0 8 1 82 
8 0 0 10 0 7 1 84 
7 0 0 8 0 6 2 84 100 
3 0 0 4 0 5 1 85 
2 0 0 9 0 8 1 86 
7 0 0 6 0 7 1 89 
3 0 0 7 0 8 1 89 
7 0 0 9 0 10 1 89 
0 0 0 0 0 0 1 126 
0 0 0 0 0 0 2 91 100 
3 0 0 0 7 0 1 92 
10 0 0 0 7 0 2 99 93 
3 0 0 0 7 0 1 94 
6 0 0 0 8 0 2 97 95 
10 0 0 0 10 0 1 96 
8 0 0 0 9 0 1 98 
4 0 0 0 8 0 1 98 
3 0 0 0 10 0 1 101 
6 0 0 0 2 0 1 101 
2 0 0 0 7 0 1 101 
0 0 0 0 0 0 2 102 114 
0 0 0 0 0 0 1 103 
9 0 0 4 0 0 1 104 
4 0 0 9 0 0 2 107 105 
4 0 0 7 0 0 2 110 106 
10 0 0 4 0 0 2 112 108 
1 0 0 10 0 0 1 108 
3 0 0 6 0 0 1 109 
5 0 0 7 0 0 1 111 
3 0 0 10 0 0 1 111 
9 0 0 10 0 0 1 113 
8 0 0 8 0 0 1 113 
0 0 0 0 0 0 1 126 
0 0 0 0 0 0 2 115 116 
5 0 0 0 0 3 2 118 117 
9 0 0 0 0 8 1 117 
4 0 0 0 0 6 1 119 
3 0 0 0 0 10 1 119 
9 0 0 0 0 7 1 120 
9 0 0 0 0 8 1 121 
6 0 0 0 0 9 2 124 122 
1 0 0 0 0 8 1 123 
8 0 0 0 0 10 1 125 
1 0 0 0 0 6 1 125 
0 0 0 0 0 0 1 126 
0 0 0 0 0 0 1 127 
5 0 0 0 0 2 2 134 128 
8 0 0 0 0 10 2 131 129 
6 0 0 0 0 6 2 132 130 
1 0 0 0 0 9 1 133 
7 0 0 0 0 10 1 132 
8 0 0 0 0 7 1 135 
7 0 0 0 0 8 1 135 
8 0 0 0 0 10 1 135 
2 0 0 0 0 3 1 136 
8 0 0 0 0 10 1 137 
0 0 0 0 0 0 1 138 
0 0 0 0 0 0 1 139 
1 0 0 3 0 0 2 141 140 
6 0 0 10 0 0 2 148 142 
3 0 0 6 0 0 2 148 142 
2 0 0 7 0 0 1 143 
8 0 0 10 0 0 1 144 
4 0 0 8 0 0 1 145 
5 0 0 7 0 0 2 147 146 
5 0 0 4 0 0 1 149 
6 0 0 10 0 0 1 149 
8 0 0 10 0 0 1 149 
0 0 0 0 0 0 1 150 
0 0 0 0 0 0 2 151 152 
8 0 0 0 0 2 2 156 153 
10 0 0 0 0 6 2 156 155 
4 0 0 0 0 10 1 154 
4 0 0 0 0 6 1 155 
9 0 0 0 0 5 2 160 157 
2 0 0 0 0 10 2 160 158 
1 0 0 0 0 9 1 158 
4 0 0 0 0 8 1 159 
6 0 0 0 0 10 1 161 
3 0 0 0 0 9 1 161 
0 0 0 0 0 0 0 
